50
16831

537 21
584 337
211 329
21 912
463 506
253 663
829 619
909 541
425 594
112 17
512 605
390 994
324 208
990 483
322 265
794 470
379 691
400 302
265 683
531 327
57 278
480 971
967 173
41 773
592 194
238 801
260 282
744 733
429 83
750 524
756 382
968 892
94 102
350 720
736 419
371 702
521 740
260 816
149 501
591 808
561 19
572 145
861 321
387 59
306 41
895 964
77 146
302 747
389 356
188 936
